50 11011

60
498
410
389
243
195
226
313
218
477
456
338
299
150
426
95
395
70
414
8
370
406
378
137
53
493
312
492
239
151
291
188
417
174
221
32
110
254
426
419
451
230
96
151
58
486
101
497
398
53
